*SENSE:Minimize
NAME          LP_Problem
ROWS
 N  Objective
 E  Constraint_1
 E  Constraint_2
 E  Constraint_3
 E  Constraint_4
 E  Constraint_5
 E  Constraint_6
 E  Constraint_7
 E  Constraint_8
 E  Constraint_9
 E  Constraint_10
 E  Constraint_11
 E  Constraint_12
 E  Constraint_13
 E  Constraint_14
 E  Constraint_15
 E  Constraint_16
 E  Constraint_17
 E  Constraint_18
 E  Constraint_19
 E  Constraint_20
 E  Constraint_21
 E  Constraint_22
 E  Constraint_23
 E  Constraint_24
 E  Constraint_25
 E  Constraint_26
 E  Constraint_27
 E  Constraint_28
COLUMNS
    x1        Constraint_1   8.000000000000e+00
    x1        Constraint_2   1.100000000000e+01
    x1        Constraint_3   1.200000000000e+01
    x1        Constraint_4   6.000000000000e+00
    x1        Constraint_5   1.400000000000e+01
    x1        Constraint_6   9.000000000000e+00
    x1        Constraint_7   7.000000000000e+00
    x1        Constraint_8   6.000000000000e+00
    x1        Constraint_9   8.000000000000e+00
    x1        Constraint_10   1.000000000000e+01
    x1        Constraint_11   1.200000000000e+01
    x1        Constraint_12   7.000000000000e+00
    x1        Constraint_13   1.400000000000e+01
    x1        Constraint_14   9.000000000000e+00
    x1        Constraint_15   1.300000000000e+01
    x1        Constraint_16   1.100000000000e+01
    x1        Constraint_17   1.000000000000e+01
    x1        Constraint_18   1.300000000000e+01
    x1        Constraint_19   1.300000000000e+01
    x1        Constraint_20   1.200000000000e+01
    x1        Constraint_21   9.000000000000e+00
    x1        Constraint_22   1.000000000000e+01
    x1        Constraint_23   5.000000000000e+00
    x1        Constraint_24   5.000000000000e+00
    x1        Constraint_25   5.000000000000e+00
    x1        Constraint_26   1.200000000000e+01
    x1        Constraint_27   1.200000000000e+01
    x1        Constraint_28   8.000000000000e+00
    x1        Objective  -1.700000000000e+01
    x10       Constraint_1   5.000000000000e+00
    x10       Constraint_2   1.100000000000e+01
    x10       Constraint_3   7.000000000000e+00
    x10       Constraint_4   9.000000000000e+00
    x10       Constraint_5   1.100000000000e+01
    x10       Constraint_6   1.000000000000e+01
    x10       Constraint_7   1.000000000000e+01
    x10       Constraint_8   1.400000000000e+01
    x10       Constraint_9   1.400000000000e+01
    x10       Constraint_10   1.300000000000e+01
    x10       Constraint_11   7.000000000000e+00
    x10       Constraint_12   7.000000000000e+00
    x10       Constraint_13   1.200000000000e+01
    x10       Constraint_14   1.100000000000e+01
    x10       Constraint_15   1.400000000000e+01
    x10       Constraint_16   1.200000000000e+01
    x10       Constraint_17   1.000000000000e+01
    x10       Constraint_18   1.000000000000e+01
    x10       Constraint_19   6.000000000000e+00
    x10       Constraint_20   1.100000000000e+01
    x10       Constraint_21   7.000000000000e+00
    x10       Constraint_22   7.000000000000e+00
    x10       Constraint_23   7.000000000000e+00
    x10       Constraint_24   1.200000000000e+01
    x10       Constraint_25   1.400000000000e+01
    x10       Constraint_26   1.400000000000e+01
    x10       Constraint_27   1.200000000000e+01
    x10       Constraint_28   1.200000000000e+01
    x10       Objective  -1.600000000000e+01
    x11       Constraint_1   9.000000000000e+00
    x11       Constraint_2   8.000000000000e+00
    x11       Constraint_3   9.000000000000e+00
    x11       Constraint_4   1.300000000000e+01
    x11       Constraint_5   1.300000000000e+01
    x11       Constraint_6   1.000000000000e+01
    x11       Constraint_7   5.000000000000e+00
    x11       Constraint_8   7.000000000000e+00
    x11       Constraint_9   1.200000000000e+01
    x11       Constraint_10   6.000000000000e+00
    x11       Constraint_11   1.100000000000e+01
    x11       Constraint_12   9.000000000000e+00
    x11       Constraint_13   1.000000000000e+01
    x11       Constraint_14   1.000000000000e+01
    x11       Constraint_15   6.000000000000e+00
    x11       Constraint_16   1.100000000000e+01
    x11       Constraint_17   8.000000000000e+00
    x11       Constraint_18   1.100000000000e+01
    x11       Constraint_19   1.200000000000e+01
    x11       Constraint_20   1.200000000000e+01
    x11       Constraint_21   1.200000000000e+01
    x11       Constraint_22   1.400000000000e+01
    x11       Constraint_23   8.000000000000e+00
    x11       Constraint_24   1.000000000000e+01
    x11       Constraint_25   1.300000000000e+01
    x11       Constraint_26   9.000000000000e+00
    x11       Constraint_27   1.000000000000e+01
    x11       Constraint_28   8.000000000000e+00
    x11       Objective  -1.700000000000e+01
    x12       Constraint_1   1.100000000000e+01
    x12       Constraint_2   1.200000000000e+01
    x12       Constraint_3   9.000000000000e+00
    x12       Constraint_4   9.000000000000e+00
    x12       Constraint_5   8.000000000000e+00
    x12       Constraint_6   1.200000000000e+01
    x12       Constraint_7   1.100000000000e+01
    x12       Constraint_8   5.000000000000e+00
    x12       Constraint_9   1.400000000000e+01
    x12       Constraint_10   7.000000000000e+00
    x12       Constraint_11   8.000000000000e+00
    x12       Constraint_12   1.300000000000e+01
    x12       Constraint_13   7.000000000000e+00
    x12       Constraint_14   1.400000000000e+01
    x12       Constraint_15   1.000000000000e+01
    x12       Constraint_16   7.000000000000e+00
    x12       Constraint_17   1.000000000000e+01
    x12       Constraint_18   1.200000000000e+01
    x12       Constraint_19   1.400000000000e+01
    x12       Constraint_20   1.400000000000e+01
    x12       Constraint_21   6.000000000000e+00
    x12       Constraint_22   9.000000000000e+00
    x12       Constraint_23   1.300000000000e+01
    x12       Constraint_24   5.000000000000e+00
    x12       Constraint_25   1.400000000000e+01
    x12       Constraint_26   6.000000000000e+00
    x12       Constraint_27   1.000000000000e+01
    x12       Constraint_28   1.300000000000e+01
    x12       Objective  -1.500000000000e+01
    x13       Constraint_1   1.000000000000e+01
    x13       Constraint_2   1.100000000000e+01
    x13       Constraint_3   5.000000000000e+00
    x13       Constraint_4   6.000000000000e+00
    x13       Constraint_5   1.300000000000e+01
    x13       Constraint_6   1.400000000000e+01
    x13       Constraint_7   7.000000000000e+00
    x13       Constraint_8   1.300000000000e+01
    x13       Constraint_9   9.000000000000e+00
    x13       Constraint_10   6.000000000000e+00
    x13       Constraint_11   6.000000000000e+00
    x13       Constraint_12   1.400000000000e+01
    x13       Constraint_13   9.000000000000e+00
    x13       Constraint_14   9.000000000000e+00
    x13       Constraint_15   5.000000000000e+00
    x13       Constraint_16   9.000000000000e+00
    x13       Constraint_17   1.000000000000e+01
    x13       Constraint_18   6.000000000000e+00
    x13       Constraint_19   6.000000000000e+00
    x13       Constraint_20   8.000000000000e+00
    x13       Constraint_21   1.100000000000e+01
    x13       Constraint_22   1.200000000000e+01
    x13       Constraint_23   8.000000000000e+00
    x13       Constraint_24   1.300000000000e+01
    x13       Constraint_25   1.300000000000e+01
    x13       Constraint_26   1.000000000000e+01
    x13       Constraint_27   1.200000000000e+01
    x13       Constraint_28   8.000000000000e+00
    x13       Objective  -1.200000000000e+01
    x14       Constraint_1   8.000000000000e+00
    x14       Constraint_2   8.000000000000e+00
    x14       Constraint_3   1.400000000000e+01
    x14       Constraint_4   7.000000000000e+00
    x14       Constraint_5   1.300000000000e+01
    x14       Constraint_6   1.200000000000e+01
    x14       Constraint_7   1.000000000000e+01
    x14       Constraint_8   5.000000000000e+00
    x14       Constraint_9   5.000000000000e+00
    x14       Constraint_10   1.100000000000e+01
    x14       Constraint_11   1.200000000000e+01
    x14       Constraint_12   9.000000000000e+00
    x14       Constraint_13   1.200000000000e+01
    x14       Constraint_14   1.300000000000e+01
    x14       Constraint_15   6.000000000000e+00
    x14       Constraint_16   1.400000000000e+01
    x14       Constraint_17   1.400000000000e+01
    x14       Constraint_18   9.000000000000e+00
    x14       Constraint_19   1.000000000000e+01
    x14       Constraint_20   6.000000000000e+00
    x14       Constraint_21   6.000000000000e+00
    x14       Constraint_22   5.000000000000e+00
    x14       Constraint_23   1.200000000000e+01
    x14       Constraint_24   5.000000000000e+00
    x14       Constraint_25   1.000000000000e+01
    x14       Constraint_26   1.200000000000e+01
    x14       Constraint_27   7.000000000000e+00
    x14       Constraint_28   9.000000000000e+00
    x14       Objective  -1.300000000000e+01
    x15       Constraint_1   7.000000000000e+00
    x15       Constraint_2   5.000000000000e+00
    x15       Constraint_3   1.100000000000e+01
    x15       Constraint_4   1.400000000000e+01
    x15       Constraint_5   9.000000000000e+00
    x15       Constraint_6   1.000000000000e+01
    x15       Constraint_7   1.100000000000e+01
    x15       Constraint_8   6.000000000000e+00
    x15       Constraint_9   7.000000000000e+00
    x15       Constraint_10   1.200000000000e+01
    x15       Constraint_11   1.400000000000e+01
    x15       Constraint_12   6.000000000000e+00
    x15       Constraint_13   5.000000000000e+00
    x15       Constraint_14   1.000000000000e+01
    x15       Constraint_15   1.200000000000e+01
    x15       Constraint_16   8.000000000000e+00
    x15       Constraint_17   5.000000000000e+00
    x15       Constraint_18   1.400000000000e+01
    x15       Constraint_19   8.000000000000e+00
    x15       Constraint_20   9.000000000000e+00
    x15       Constraint_21   1.000000000000e+01
    x15       Constraint_22   9.000000000000e+00
    x15       Constraint_23   1.100000000000e+01
    x15       Constraint_24   7.000000000000e+00
    x15       Constraint_25   1.200000000000e+01
    x15       Constraint_26   6.000000000000e+00
    x15       Constraint_27   9.000000000000e+00
    x15       Constraint_28   5.000000000000e+00
    x15       Objective  -1.400000000000e+01
    x16       Constraint_1   1.100000000000e+01
    x16       Constraint_2   7.000000000000e+00
    x16       Constraint_3   5.000000000000e+00
    x16       Constraint_4   5.000000000000e+00
    x16       Constraint_5   6.000000000000e+00
    x16       Constraint_6   9.000000000000e+00
    x16       Constraint_7   7.000000000000e+00
    x16       Constraint_8   1.400000000000e+01
    x16       Constraint_9   8.000000000000e+00
    x16       Constraint_10   1.300000000000e+01
    x16       Constraint_11   1.300000000000e+01
    x16       Constraint_12   1.000000000000e+01
    x16       Constraint_13   8.000000000000e+00
    x16       Constraint_14   9.000000000000e+00
    x16       Constraint_15   1.000000000000e+01
    x16       Constraint_16   6.000000000000e+00
    x16       Constraint_17   9.000000000000e+00
    x16       Constraint_18   6.000000000000e+00
    x16       Constraint_19   1.200000000000e+01
    x16       Constraint_20   6.000000000000e+00
    x16       Constraint_21   1.300000000000e+01
    x16       Constraint_22   1.100000000000e+01
    x16       Constraint_23   1.300000000000e+01
    x16       Constraint_24   1.000000000000e+01
    x16       Constraint_25   8.000000000000e+00
    x16       Constraint_26   6.000000000000e+00
    x16       Constraint_27   6.000000000000e+00
    x16       Constraint_28   8.000000000000e+00
    x16       Objective  -1.000000000000e+01
    x17       Constraint_1   1.100000000000e+01
    x17       Constraint_2   1.000000000000e+01
    x17       Constraint_3   9.000000000000e+00
    x17       Constraint_4   1.000000000000e+01
    x17       Constraint_5   1.100000000000e+01
    x17       Constraint_6   5.000000000000e+00
    x17       Constraint_7   1.400000000000e+01
    x17       Constraint_8   8.000000000000e+00
    x17       Constraint_9   1.000000000000e+01
    x17       Constraint_10   5.000000000000e+00
    x17       Constraint_11   9.000000000000e+00
    x17       Constraint_12   6.000000000000e+00
    x17       Constraint_13   1.000000000000e+01
    x17       Constraint_14   1.300000000000e+01
    x17       Constraint_15   9.000000000000e+00
    x17       Constraint_16   5.000000000000e+00
    x17       Constraint_17   8.000000000000e+00
    x17       Constraint_18   6.000000000000e+00
    x17       Constraint_19   6.000000000000e+00
    x17       Constraint_20   7.000000000000e+00
    x17       Constraint_21   1.000000000000e+01
    x17       Constraint_22   8.000000000000e+00
    x17       Constraint_23   1.000000000000e+01
    x17       Constraint_24   7.000000000000e+00
    x17       Constraint_25   1.400000000000e+01
    x17       Constraint_26   7.000000000000e+00
    x17       Constraint_27   1.000000000000e+01
    x17       Constraint_28   1.200000000000e+01
    x17       Objective  -1.800000000000e+01
    x18       Constraint_1   8.000000000000e+00
    x18       Constraint_2   1.300000000000e+01
    x18       Constraint_3   9.000000000000e+00
    x18       Constraint_4   1.100000000000e+01
    x18       Constraint_5   1.200000000000e+01
    x18       Constraint_6   1.400000000000e+01
    x18       Constraint_7   6.000000000000e+00
    x18       Constraint_8   5.000000000000e+00
    x18       Constraint_9   1.100000000000e+01
    x18       Constraint_10   1.100000000000e+01
    x18       Constraint_11   1.200000000000e+01
    x18       Constraint_12   1.000000000000e+01
    x18       Constraint_13   8.000000000000e+00
    x18       Constraint_14   1.100000000000e+01
    x18       Constraint_15   8.000000000000e+00
    x18       Constraint_16   1.400000000000e+01
    x18       Constraint_17   9.000000000000e+00
    x18       Constraint_18   1.000000000000e+01
    x18       Constraint_19   1.200000000000e+01
    x18       Constraint_20   1.400000000000e+01
    x18       Constraint_21   9.000000000000e+00
    x18       Constraint_22   9.000000000000e+00
    x18       Constraint_23   5.000000000000e+00
    x18       Constraint_24   5.000000000000e+00
    x18       Constraint_25   5.000000000000e+00
    x18       Constraint_26   5.000000000000e+00
    x18       Constraint_27   7.000000000000e+00
    x18       Constraint_28   1.100000000000e+01
    x18       Objective  -1.700000000000e+01
    x19       Constraint_1   9.000000000000e+00
    x19       Constraint_2   1.000000000000e+01
    x19       Constraint_3   9.000000000000e+00
    x19       Constraint_4   7.000000000000e+00
    x19       Constraint_5   1.300000000000e+01
    x19       Constraint_6   1.400000000000e+01
    x19       Constraint_7   1.000000000000e+01
    x19       Constraint_8   1.100000000000e+01
    x19       Constraint_9   7.000000000000e+00
    x19       Constraint_10   1.400000000000e+01
    x19       Constraint_11   6.000000000000e+00
    x19       Constraint_12   1.400000000000e+01
    x19       Constraint_13   1.100000000000e+01
    x19       Constraint_14   1.200000000000e+01
    x19       Constraint_15   1.000000000000e+01
    x19       Constraint_16   7.000000000000e+00
    x19       Constraint_17   1.400000000000e+01
    x19       Constraint_18   1.400000000000e+01
    x19       Constraint_19   1.400000000000e+01
    x19       Constraint_20   1.400000000000e+01
    x19       Constraint_21   7.000000000000e+00
    x19       Constraint_22   9.000000000000e+00
    x19       Constraint_23   1.000000000000e+01
    x19       Constraint_24   1.300000000000e+01
    x19       Constraint_25   1.000000000000e+01
    x19       Constraint_26   1.200000000000e+01
    x19       Constraint_27   7.000000000000e+00
    x19       Constraint_28   5.000000000000e+00
    x19       Objective  -1.200000000000e+01
    x2        Constraint_1   6.000000000000e+00
    x2        Constraint_2   8.000000000000e+00
    x2        Constraint_3   1.400000000000e+01
    x2        Constraint_4   1.400000000000e+01
    x2        Constraint_5   1.000000000000e+01
    x2        Constraint_6   1.000000000000e+01
    x2        Constraint_7   1.200000000000e+01
    x2        Constraint_8   9.000000000000e+00
    x2        Constraint_9   1.300000000000e+01
    x2        Constraint_10   7.000000000000e+00
    x2        Constraint_11   1.200000000000e+01
    x2        Constraint_12   1.100000000000e+01
    x2        Constraint_13   1.000000000000e+01
    x2        Constraint_14   6.000000000000e+00
    x2        Constraint_15   7.000000000000e+00
    x2        Constraint_16   1.000000000000e+01
    x2        Constraint_17   5.000000000000e+00
    x2        Constraint_18   7.000000000000e+00
    x2        Constraint_19   7.000000000000e+00
    x2        Constraint_20   1.100000000000e+01
    x2        Constraint_21   1.200000000000e+01
    x2        Constraint_22   1.200000000000e+01
    x2        Constraint_23   1.000000000000e+01
    x2        Constraint_24   8.000000000000e+00
    x2        Constraint_25   8.000000000000e+00
    x2        Constraint_26   1.200000000000e+01
    x2        Constraint_27   5.000000000000e+00
    x2        Constraint_28   5.000000000000e+00
    x2        Objective  -1.000000000000e+01
    x20       Constraint_1   1.100000000000e+01
    x20       Constraint_2   1.300000000000e+01
    x20       Constraint_3   1.400000000000e+01
    x20       Constraint_4   9.000000000000e+00
    x20       Constraint_5   5.000000000000e+00
    x20       Constraint_6   1.000000000000e+01
    x20       Constraint_7   1.000000000000e+01
    x20       Constraint_8   1.300000000000e+01
    x20       Constraint_9   5.000000000000e+00
    x20       Constraint_10   1.300000000000e+01
    x20       Constraint_11   7.000000000000e+00
    x20       Constraint_12   1.300000000000e+01
    x20       Constraint_13   1.200000000000e+01
    x20       Constraint_14   1.300000000000e+01
    x20       Constraint_15   1.300000000000e+01
    x20       Constraint_16   9.000000000000e+00
    x20       Constraint_17   1.400000000000e+01
    x20       Constraint_18   1.200000000000e+01
    x20       Constraint_19   1.100000000000e+01
    x20       Constraint_20   6.000000000000e+00
    x20       Constraint_21   8.000000000000e+00
    x20       Constraint_22   1.100000000000e+01
    x20       Constraint_23   6.000000000000e+00
    x20       Constraint_24   9.000000000000e+00
    x20       Constraint_25   1.400000000000e+01
    x20       Constraint_26   8.000000000000e+00
    x20       Constraint_27   1.000000000000e+01
    x20       Constraint_28   6.000000000000e+00
    x20       Objective  -1.200000000000e+01
    x21       Constraint_1   1.100000000000e+01
    x21       Constraint_2   1.400000000000e+01
    x21       Constraint_3   1.100000000000e+01
    x21       Constraint_4   5.000000000000e+00
    x21       Constraint_5   5.000000000000e+00
    x21       Constraint_6   1.000000000000e+01
    x21       Constraint_7   1.000000000000e+01
    x21       Constraint_8   1.000000000000e+01
    x21       Constraint_9   1.300000000000e+01
    x21       Constraint_10   1.400000000000e+01
    x21       Constraint_11   1.000000000000e+01
    x21       Constraint_12   7.000000000000e+00
    x21       Constraint_13   1.100000000000e+01
    x21       Constraint_14   1.300000000000e+01
    x21       Constraint_15   8.000000000000e+00
    x21       Constraint_16   9.000000000000e+00
    x21       Constraint_17   1.400000000000e+01
    x21       Constraint_18   1.200000000000e+01
    x21       Constraint_19   6.000000000000e+00
    x21       Constraint_20   1.400000000000e+01
    x21       Constraint_21   1.000000000000e+01
    x21       Constraint_22   1.100000000000e+01
    x21       Constraint_23   1.000000000000e+01
    x21       Constraint_24   6.000000000000e+00
    x21       Constraint_25   1.400000000000e+01
    x21       Constraint_26   1.000000000000e+01
    x21       Constraint_27   9.000000000000e+00
    x21       Constraint_28   8.000000000000e+00
    x21       Objective  -1.800000000000e+01
    x22       Constraint_1   6.000000000000e+00
    x22       Constraint_2   9.000000000000e+00
    x22       Constraint_3   1.300000000000e+01
    x22       Constraint_4   1.400000000000e+01
    x22       Constraint_5   8.000000000000e+00
    x22       Constraint_6   1.400000000000e+01
    x22       Constraint_7   1.100000000000e+01
    x22       Constraint_8   8.000000000000e+00
    x22       Constraint_9   1.100000000000e+01
    x22       Constraint_10   1.400000000000e+01
    x22       Constraint_11   1.300000000000e+01
    x22       Constraint_12   1.200000000000e+01
    x22       Constraint_13   7.000000000000e+00
    x22       Constraint_14   1.400000000000e+01
    x22       Constraint_15   8.000000000000e+00
    x22       Constraint_16   1.100000000000e+01
    x22       Constraint_17   9.000000000000e+00
    x22       Constraint_18   1.400000000000e+01
    x22       Constraint_19   6.000000000000e+00
    x22       Constraint_20   1.000000000000e+01
    x22       Constraint_21   9.000000000000e+00
    x22       Constraint_22   6.000000000000e+00
    x22       Constraint_23   8.000000000000e+00
    x22       Constraint_24   1.300000000000e+01
    x22       Constraint_25   9.000000000000e+00
    x22       Constraint_26   1.000000000000e+01
    x22       Constraint_27   5.000000000000e+00
    x22       Constraint_28   9.000000000000e+00
    x22       Objective  -1.100000000000e+01
    x23       Constraint_1   1.100000000000e+01
    x23       Constraint_2   9.000000000000e+00
    x23       Constraint_3   7.000000000000e+00
    x23       Constraint_4   6.000000000000e+00
    x23       Constraint_5   1.300000000000e+01
    x23       Constraint_6   1.400000000000e+01
    x23       Constraint_7   1.100000000000e+01
    x23       Constraint_8   9.000000000000e+00
    x23       Constraint_9   7.000000000000e+00
    x23       Constraint_10   1.400000000000e+01
    x23       Constraint_11   5.000000000000e+00
    x23       Constraint_12   9.000000000000e+00
    x23       Constraint_13   9.000000000000e+00
    x23       Constraint_14   1.200000000000e+01
    x23       Constraint_15   1.100000000000e+01
    x23       Constraint_16   8.000000000000e+00
    x23       Constraint_17   5.000000000000e+00
    x23       Constraint_18   8.000000000000e+00
    x23       Constraint_19   7.000000000000e+00
    x23       Constraint_20   1.200000000000e+01
    x23       Constraint_21   7.000000000000e+00
    x23       Constraint_22   1.300000000000e+01
    x23       Constraint_23   1.400000000000e+01
    x23       Constraint_24   5.000000000000e+00
    x23       Constraint_25   1.200000000000e+01
    x23       Constraint_26   1.000000000000e+01
    x23       Constraint_27   8.000000000000e+00
    x23       Constraint_28   7.000000000000e+00
    x23       Objective  -1.700000000000e+01
    x24       Constraint_1   1.000000000000e+00
    x25       Constraint_2   1.000000000000e+00
    x26       Constraint_3   1.000000000000e+00
    x27       Constraint_4   1.000000000000e+00
    x28       Constraint_5   1.000000000000e+00
    x29       Constraint_6   1.000000000000e+00
    x3        Constraint_1   5.000000000000e+00
    x3        Constraint_2   5.000000000000e+00
    x3        Constraint_3   1.100000000000e+01
    x3        Constraint_4   1.200000000000e+01
    x3        Constraint_5   8.000000000000e+00
    x3        Constraint_6   9.000000000000e+00
    x3        Constraint_7   1.000000000000e+01
    x3        Constraint_8   8.000000000000e+00
    x3        Constraint_9   7.000000000000e+00
    x3        Constraint_10   8.000000000000e+00
    x3        Constraint_11   5.000000000000e+00
    x3        Constraint_12   8.000000000000e+00
    x3        Constraint_13   1.400000000000e+01
    x3        Constraint_14   1.200000000000e+01
    x3        Constraint_15   1.100000000000e+01
    x3        Constraint_16   1.200000000000e+01
    x3        Constraint_17   1.100000000000e+01
    x3        Constraint_18   8.000000000000e+00
    x3        Constraint_19   5.000000000000e+00
    x3        Constraint_20   6.000000000000e+00
    x3        Constraint_21   1.100000000000e+01
    x3        Constraint_22   9.000000000000e+00
    x3        Constraint_23   1.200000000000e+01
    x3        Constraint_24   5.000000000000e+00
    x3        Constraint_25   1.200000000000e+01
    x3        Constraint_26   1.200000000000e+01
    x3        Constraint_27   6.000000000000e+00
    x3        Constraint_28   1.200000000000e+01
    x3        Objective  -1.500000000000e+01
    x30       Constraint_7   1.000000000000e+00
    x31       Constraint_8   1.000000000000e+00
    x32       Constraint_9   1.000000000000e+00
    x33       Constraint_10   1.000000000000e+00
    x34       Constraint_11   1.000000000000e+00
    x35       Constraint_12   1.000000000000e+00
    x36       Constraint_13   1.000000000000e+00
    x37       Constraint_14   1.000000000000e+00
    x38       Constraint_15   1.000000000000e+00
    x39       Constraint_16   1.000000000000e+00
    x4        Constraint_1   9.000000000000e+00
    x4        Constraint_2   1.300000000000e+01
    x4        Constraint_3   7.000000000000e+00
    x4        Constraint_4   1.100000000000e+01
    x4        Constraint_5   1.000000000000e+01
    x4        Constraint_6   1.000000000000e+01
    x4        Constraint_7   1.300000000000e+01
    x4        Constraint_8   1.100000000000e+01
    x4        Constraint_9   7.000000000000e+00
    x4        Constraint_10   5.000000000000e+00
    x4        Constraint_11   7.000000000000e+00
    x4        Constraint_12   9.000000000000e+00
    x4        Constraint_13   5.000000000000e+00
    x4        Constraint_14   1.300000000000e+01
    x4        Constraint_15   1.100000000000e+01
    x4        Constraint_16   1.100000000000e+01
    x4        Constraint_17   9.000000000000e+00
    x4        Constraint_18   1.100000000000e+01
    x4        Constraint_19   6.000000000000e+00
    x4        Constraint_20   1.000000000000e+01
    x4        Constraint_21   1.400000000000e+01
    x4        Constraint_22   1.200000000000e+01
    x4        Constraint_23   6.000000000000e+00
    x4        Constraint_24   5.000000000000e+00
    x4        Constraint_25   1.000000000000e+01
    x4        Constraint_26   1.200000000000e+01
    x4        Constraint_27   6.000000000000e+00
    x4        Constraint_28   5.000000000000e+00
    x4        Objective  -1.400000000000e+01
    x40       Constraint_17   1.000000000000e+00
    x41       Constraint_18   1.000000000000e+00
    x42       Constraint_19   1.000000000000e+00
    x43       Constraint_20   1.000000000000e+00
    x44       Constraint_21   1.000000000000e+00
    x45       Constraint_22   1.000000000000e+00
    x46       Constraint_23   1.000000000000e+00
    x47       Constraint_24   1.000000000000e+00
    x48       Constraint_25   1.000000000000e+00
    x49       Constraint_26   1.000000000000e+00
    x5        Constraint_1   1.300000000000e+01
    x5        Constraint_2   5.000000000000e+00
    x5        Constraint_3   8.000000000000e+00
    x5        Constraint_4   1.300000000000e+01
    x5        Constraint_5   1.000000000000e+01
    x5        Constraint_6   1.400000000000e+01
    x5        Constraint_7   5.000000000000e+00
    x5        Constraint_8   8.000000000000e+00
    x5        Constraint_9   1.100000000000e+01
    x5        Constraint_10   6.000000000000e+00
    x5        Constraint_11   5.000000000000e+00
    x5        Constraint_12   8.000000000000e+00
    x5        Constraint_13   7.000000000000e+00
    x5        Constraint_14   1.100000000000e+01
    x5        Constraint_15   9.000000000000e+00
    x5        Constraint_16   1.200000000000e+01
    x5        Constraint_17   9.000000000000e+00
    x5        Constraint_18   1.300000000000e+01
    x5        Constraint_19   1.300000000000e+01
    x5        Constraint_20   1.200000000000e+01
    x5        Constraint_21   5.000000000000e+00
    x5        Constraint_22   1.400000000000e+01
    x5        Constraint_23   1.200000000000e+01
    x5        Constraint_24   1.400000000000e+01
    x5        Constraint_25   9.000000000000e+00
    x5        Constraint_26   5.000000000000e+00
    x5        Constraint_27   1.100000000000e+01
    x5        Constraint_28   9.000000000000e+00
    x5        Objective  -1.900000000000e+01
    x50       Constraint_27   1.000000000000e+00
    x51       Constraint_28   1.000000000000e+00
    x6        Constraint_1   9.000000000000e+00
    x6        Constraint_2   1.300000000000e+01
    x6        Constraint_3   1.300000000000e+01
    x6        Constraint_4   6.000000000000e+00
    x6        Constraint_5   1.100000000000e+01
    x6        Constraint_6   1.200000000000e+01
    x6        Constraint_7   7.000000000000e+00
    x6        Constraint_8   8.000000000000e+00
    x6        Constraint_9   6.000000000000e+00
    x6        Constraint_10   1.200000000000e+01
    x6        Constraint_11   1.000000000000e+01
    x6        Constraint_12   8.000000000000e+00
    x6        Constraint_13   1.200000000000e+01
    x6        Constraint_14   1.200000000000e+01
    x6        Constraint_15   7.000000000000e+00
    x6        Constraint_16   1.000000000000e+01
    x6        Constraint_17   9.000000000000e+00
    x6        Constraint_18   8.000000000000e+00
    x6        Constraint_19   8.000000000000e+00
    x6        Constraint_20   8.000000000000e+00
    x6        Constraint_21   1.100000000000e+01
    x6        Constraint_22   1.200000000000e+01
    x6        Constraint_23   1.100000000000e+01
    x6        Constraint_24   6.000000000000e+00
    x6        Constraint_25   1.200000000000e+01
    x6        Constraint_26   5.000000000000e+00
    x6        Constraint_27   1.200000000000e+01
    x6        Constraint_28   6.000000000000e+00
    x6        Objective  -1.300000000000e+01
    x7        Constraint_1   1.100000000000e+01
    x7        Constraint_2   1.300000000000e+01
    x7        Constraint_3   1.000000000000e+01
    x7        Constraint_4   1.300000000000e+01
    x7        Constraint_5   1.100000000000e+01
    x7        Constraint_6   7.000000000000e+00
    x7        Constraint_7   1.400000000000e+01
    x7        Constraint_8   1.200000000000e+01
    x7        Constraint_9   9.000000000000e+00
    x7        Constraint_10   1.400000000000e+01
    x7        Constraint_11   6.000000000000e+00
    x7        Constraint_12   1.200000000000e+01
    x7        Constraint_13   1.200000000000e+01
    x7        Constraint_14   6.000000000000e+00
    x7        Constraint_15   6.000000000000e+00
    x7        Constraint_16   1.300000000000e+01
    x7        Constraint_17   1.100000000000e+01
    x7        Constraint_18   5.000000000000e+00
    x7        Constraint_19   9.000000000000e+00
    x7        Constraint_20   1.100000000000e+01
    x7        Constraint_21   1.000000000000e+01
    x7        Constraint_22   1.100000000000e+01
    x7        Constraint_23   1.000000000000e+01
    x7        Constraint_24   1.000000000000e+01
    x7        Constraint_25   1.100000000000e+01
    x7        Constraint_26   1.300000000000e+01
    x7        Constraint_27   7.000000000000e+00
    x7        Constraint_28   5.000000000000e+00
    x7        Objective  -1.500000000000e+01
    x8        Constraint_1   9.000000000000e+00
    x8        Constraint_2   1.100000000000e+01
    x8        Constraint_3   1.100000000000e+01
    x8        Constraint_4   1.400000000000e+01
    x8        Constraint_5   1.400000000000e+01
    x8        Constraint_6   7.000000000000e+00
    x8        Constraint_7   1.200000000000e+01
    x8        Constraint_8   6.000000000000e+00
    x8        Constraint_9   1.300000000000e+01
    x8        Constraint_10   5.000000000000e+00
    x8        Constraint_11   1.400000000000e+01
    x8        Constraint_12   1.300000000000e+01
    x8        Constraint_13   1.100000000000e+01
    x8        Constraint_14   1.400000000000e+01
    x8        Constraint_15   6.000000000000e+00
    x8        Constraint_16   1.400000000000e+01
    x8        Constraint_17   9.000000000000e+00
    x8        Constraint_18   8.000000000000e+00
    x8        Constraint_19   7.000000000000e+00
    x8        Constraint_20   1.000000000000e+01
    x8        Constraint_21   1.400000000000e+01
    x8        Constraint_22   1.400000000000e+01
    x8        Constraint_23   1.300000000000e+01
    x8        Constraint_24   7.000000000000e+00
    x8        Constraint_25   1.200000000000e+01
    x8        Constraint_26   5.000000000000e+00
    x8        Constraint_27   1.000000000000e+01
    x8        Constraint_28   5.000000000000e+00
    x8        Objective  -1.000000000000e+01
    x9        Constraint_1   6.000000000000e+00
    x9        Constraint_2   6.000000000000e+00
    x9        Constraint_3   9.000000000000e+00
    x9        Constraint_4   8.000000000000e+00
    x9        Constraint_5   8.000000000000e+00
    x9        Constraint_6   8.000000000000e+00
    x9        Constraint_7   9.000000000000e+00
    x9        Constraint_8   1.000000000000e+01
    x9        Constraint_9   1.300000000000e+01
    x9        Constraint_10   5.000000000000e+00
    x9        Constraint_11   1.200000000000e+01
    x9        Constraint_12   1.000000000000e+01
    x9        Constraint_13   1.100000000000e+01
    x9        Constraint_14   7.000000000000e+00
    x9        Constraint_15   9.000000000000e+00
    x9        Constraint_16   1.000000000000e+01
    x9        Constraint_17   9.000000000000e+00
    x9        Constraint_18   7.000000000000e+00
    x9        Constraint_19   7.000000000000e+00
    x9        Constraint_20   1.100000000000e+01
    x9        Constraint_21   1.200000000000e+01
    x9        Constraint_22   9.000000000000e+00
    x9        Constraint_23   7.000000000000e+00
    x9        Constraint_24   8.000000000000e+00
    x9        Constraint_25   1.100000000000e+01
    x9        Constraint_26   1.100000000000e+01
    x9        Constraint_27   1.400000000000e+01
    x9        Constraint_28   5.000000000000e+00
    x9        Objective  -1.100000000000e+01
RHS
    RHS       Constraint_1   3.100000000000e+01
    RHS       Constraint_2   2.000000000000e+01
    RHS       Constraint_3   3.400000000000e+01
    RHS       Constraint_4   4.300000000000e+01
    RHS       Constraint_5   4.100000000000e+01
    RHS       Constraint_6   3.900000000000e+01
    RHS       Constraint_7   4.000000000000e+01
    RHS       Constraint_8   4.100000000000e+01
    RHS       Constraint_9   4.800000000000e+01
    RHS       Constraint_10   2.500000000000e+01
    RHS       Constraint_11   2.100000000000e+01
    RHS       Constraint_12   3.900000000000e+01
    RHS       Constraint_13   2.200000000000e+01
    RHS       Constraint_14   2.900000000000e+01
    RHS       Constraint_15   4.600000000000e+01
    RHS       Constraint_16   4.500000000000e+01
    RHS       Constraint_17   4.500000000000e+01
    RHS       Constraint_18   2.000000000000e+01
    RHS       Constraint_19   3.200000000000e+01
    RHS       Constraint_20   2.100000000000e+01
    RHS       Constraint_21   4.200000000000e+01
    RHS       Constraint_22   3.400000000000e+01
    RHS       Constraint_23   2.600000000000e+01
    RHS       Constraint_24   4.800000000000e+01
    RHS       Constraint_25   4.300000000000e+01
    RHS       Constraint_26   2.300000000000e+01
    RHS       Constraint_27   2.600000000000e+01
    RHS       Constraint_28   2.800000000000e+01
BOUNDS
ENDATA
